# Random Circle Problem
param d := 0.05; 
param n := 10; 
param radius := 2.00; 
param v0 := 
1 5.52
2 5.12
3 4.91
4 5.63
5 5.37
6 4.89
7 5.16
8 5.94
9 5.03
10 5.00
;
param cap := 
1 3.30884
2 4.17548
3 4.46238
4 4.55416
5 6.17588
6 5.90564
7 0.15103
8 0.84259
9 2.20464
10 2.49890
;
param x0 := 
1 2.00
2 1.62
3 0.62
4 -0.62
5 -1.62
6 -2.00
7 -1.62
8 -0.62
9 0.62
10 1.62
;
param y0 := 
1 -0.00
2 1.18
3 1.90
4 1.90
5 1.18
6 0.00
7 -1.18
8 -1.90
9 -1.90
10 -1.18
;
